Si [FCC,FCC,cF8]
1.000000
   0.00000000000000   2.71525000000000   2.71525000000000
   2.71525000000000   0.00000000000000   2.71525000000000
   2.71525000000000   2.71525000000000   0.00000000000000
Si 
2 
Direct(2) [A2]
   0.00000000000000   0.00000000000000   0.00000000000000  Si
   0.25000000000000   0.25000000000000   0.25000000000000  Si
