Copper  [FCC,FCC,cF4] (STD_PRIM doi:10.1016/j.commatsci.2010.05.010)
1.000000
   0.00000000000000   1.80994999410000   1.80994999410000
   1.80994999410000   0.00000000000000   1.80994999410000
   1.80994999410000   1.80994999410000   0.00000000000000
Cu 
1 
Direct(1) [A1] 
   0.00000000000000   0.00000000000000   0.00000000000000  Cu    