Copper  [FCC,FCC,cF4] (STD_PRIM doi:10.1
   1.00000000000000     
     0.0000000000000000    1.8184103365614697    1.8184103365614697
     1.8184103365614697    0.0000000000000000    1.8184103365614697
     1.8184103365614697    1.8184103365614697    0.0000000000000000
  Cu/0e71e558f37
               1
Direct
  0.0000000000000000  0.0000000000000000  0.0000000000000000
 
  0.00000000E+00  0.00000000E+00  0.00000000E+00
