Si [FCC,FCC,cF8]                        
   1.00000000000000     
     0.0000000000000000    2.7342919912123502    2.7342919912123502
     2.7342919912123502    0.0000000000000000    2.7342919912123502
     2.7342919912123502    2.7342919912123502    0.0000000000000000
  Si/79d9987ad87
               2
Direct
  0.0000000000000000  0.0000000000000000  0.0000000000000000
  0.2500000000000000  0.2500000000000000  0.2500000000000000
 
  0.00000000E+00  0.00000000E+00  0.00000000E+00
  0.00000000E+00  0.00000000E+00  0.00000000E+00
