KPOINTS
 0
Gamma point shift
 30    30    30
  0     0     0
