# Finer Relax Self Consistent Field Run

SYSTEM = Si FCC
# IVDW = 11       
PREC = Accurate
EDIFF = 1E-10
EDIFFG = -1E-5

ISMEAR = 0      
SIGMA = 0.03   
GGA = PE

ENCUT = 520     
NSW = 100        

IBRION = 2     
ISIF = 3       

LWAVE = .FALSE.
LCHARG = .FALSE.

# ISPIN = 2
# MAGMOM = numberofions*initialguess 
