 &control
    calculation='bands'
    restart_mode='from_scratch',
    pseudo_dir = '../../pseudo/',
    outdir='./'
    prefix='Fe'
 /
 &system
    ibrav = 3, celldm(1) =5.4235, nat= 1, ntyp= 1,
    ecutwfc =120.0
    lspinorb=.true.,
    noncolin=.true.,
    starting_magnetization(1) = -1,
    nbnd=28 
    occupations='smearing', smearing='cold', degauss=0.02
 nosym=.true.
 /
 &electrons
    startingwfc='random'
    diagonalization='cg'
    conv_thr=1.0e-10
 /
ATOMIC_SPECIES
 Fe 55.85 Fe.jry.pbe.UPF 
ATOMIC_POSITIONS
 Fe 0.0 0.0 0.0
K_POINTS crystal_b
10
0.0000 0.0000 0.0000 100 !G
0.500 -0.5000 -0.5000 100 !H
0.7500 0.2500 -0.2500 100 !P
0.5000 0.0000 -0.5000 100 !N
0.0000 0.0000 0.000 100 !G
0.5 0.5 0.5 100 !H
0.5 0.0 0.0 100 !N
0.0 0.0 0.0 100 !G
0.75 0.25 -0.25 100 !P
0.5 0.0 0.0 100 !N 