KPOINTS
 0
Gamma point shift
 10    10    10
  0     0     0
